32	0

0	1	2
10	1	3
5	1	4
9	1	5
10	1	6
8	1	7
8	1	8
9	1	9
7	1	10
10	1	11
8	1	12
9	1	13
9	1	14
5	1	15
6	1	16
10	1	17
8	1	18
8	1	19
8	1	20
7	1	21
4	1	22
3	1	23
4	1	24
5	1	25
3	1	26
3	1	27
3	1	28
3	1	29
3	1	30
1	1	31
1	1	32
0	0
